; benchmark generated from python API
(set-info :status unknown)
(declare-fun x_days () Int)
(assert
 (>= x_days (- 36525)))
(assert
 (<= x_days 36523))
(assert
 (>= x_days 7214))
(assert
 (<= x_days 7304))
(assert
 (let ((?x470 (+ x_days 730179)))
(let ((?x695 (mod ?x470 146097)))
(let ((?x838 (div ?x695 36524)))
(let ((?x444 (ite (<= 4 ?x838) 3 ?x838)))
(let ((?x511 (- ?x695 (* ?x444 36524))))
(let ((?x860 (mod ?x511 1461)))
(let ((?x675 (div ?x860 365)))
(let ((?x469 (ite (<= 4 ?x675) 3 ?x675)))
(let ((?x837 (+ (+ (* (div ?x470 146097) 400) (* ?x444 100)) (* (div ?x511 1461) 4))))
(let ((?x436 (+ (+ ?x837 ?x469) 1)))
(let (($x679 (or (and (= (mod ?x436 4) 0) (and (distinct (mod ?x436 100) 0) true)) (= (mod ?x436 400) 0))))
(let ((?x822 (- ?x860 (* ?x469 365))))
(let ((?x482 (ite $x679 31 31)))
(let (($x1123 (>= ?x822 ?x482)))
(let ((?x619 (ite $x1123 (+ (- ?x822 ?x482) 1) (+ (- ?x822 (ite $x679 0 0)) 1))))
(let ((?x795 (ite $x679 60 59)))
(let (($x839 (>= ?x822 ?x795)))
(let ((?x914 (ite $x679 91 90)))
(let (($x1125 (>= ?x822 ?x914)))
(let ((?x777 (ite $x1125 (+ (- ?x822 ?x914) 1) (ite $x839 (+ (- ?x822 ?x795) 1) ?x619))))
(let ((?x1113 (ite $x679 121 120)))
(let (($x1084 (>= ?x822 ?x1113)))
(let ((?x961 (ite $x679 152 151)))
(let (($x1189 (>= ?x822 ?x961)))
(let ((?x1007 (ite $x1189 (+ (- ?x822 ?x961) 1) (ite $x1084 (+ (- ?x822 ?x1113) 1) ?x777))))
(let ((?x921 (ite $x679 182 181)))
(let (($x1161 (>= ?x822 ?x921)))
(let ((?x1101 (ite $x679 213 212)))
(let (($x1085 (>= ?x822 ?x1101)))
(let ((?x542 (ite $x1085 (+ (- ?x822 ?x1101) 1) (ite $x1161 (+ (- ?x822 ?x921) 1) ?x1007))))
(let ((?x998 (ite $x679 244 243)))
(let (($x986 (>= ?x822 ?x998)))
(let ((?x975 (ite $x679 274 273)))
(let (($x757 (>= ?x822 ?x975)))
(let ((?x583 (ite $x757 (+ (- ?x822 ?x975) 1) (ite $x986 (+ (- ?x822 ?x998) 1) ?x542))))
(let ((?x722 (ite $x679 305 304)))
(let (($x974 (>= ?x822 ?x722)))
(let ((?x1026 (ite $x679 335 334)))
(let (($x537 (>= ?x822 ?x1026)))
(let ((?x549 (ite $x537 (+ (- ?x822 ?x1026) 1) (ite $x974 (+ (- ?x822 ?x722) 1) ?x583))))
(let ((?x712 (ite $x1084 5 (ite $x1125 4 (ite $x839 3 (ite $x1123 2 1))))))
(let ((?x473 (ite $x986 9 (ite $x1085 8 (ite $x1161 7 (ite $x1189 6 ?x712))))))
(let ((?x1057 (+ (ite $x537 12 (ite $x974 11 (ite $x757 10 ?x473))) (+ (* 1 12) 0))))
(let ((?x1168 (- ?x1057 1)))
(let ((?x667 (+ (mod ?x1168 12) 1)))
(let ((?x1075 (ite (or (= ?x667 4) (= ?x667 6) (= ?x667 9) (= ?x667 11)) 30 31)))
(let (($x709 (and (= (mod (+ ?x436 (+ 0 (div ?x1168 12))) 4) 0) (and (distinct (mod (+ ?x436 (+ 0 (div ?x1168 12))) 100) 0) true))))
(let (($x1011 (or $x709 (= (mod (+ ?x436 (+ 0 (div ?x1168 12))) 400) 0))))
(let ((?x1171 (ite (= ?x667 2) (ite $x1011 29 28) ?x1075)))
(let ((?x489 (ite (> 1 ?x549) 1 (ite (> ?x549 ?x1171) ?x1171 ?x549))))
(let ((?x976 (ite (> 1 ?x489) 1 (ite (> ?x489 ?x1171) ?x1171 ?x489))))
(let ((?x732 (ite (= 2 ?x667) (ite $x1011 31 31) (ite (= 1 ?x667) (ite $x1011 0 0) 0))))
(let ((?x1055 (ite (= 4 ?x667) (ite $x1011 91 90) (ite (= 3 ?x667) (ite $x1011 60 59) ?x732))))
(let ((?x582 (ite (= 6 ?x667) (ite $x1011 152 151) (ite (= 5 ?x667) (ite $x1011 121 120) ?x1055))))
(let ((?x1064 (ite (= 8 ?x667) (ite $x1011 213 212) (ite (= 7 ?x667) (ite $x1011 182 181) ?x582))))
(let ((?x1186 (ite (= 10 ?x667) (ite $x1011 274 273) (ite (= 9 ?x667) (ite $x1011 244 243) ?x1064))))
(let ((?x1050 (ite (= 12 ?x667) (ite $x1011 335 334) (ite (= 11 ?x667) (ite $x1011 305 304) ?x1186))))
(let ((?x1056 (+ (* 365 (- (+ ?x436 (+ 0 (div ?x1168 12))) 1)) (div (- (+ ?x436 (+ 0 (div ?x1168 12))) 1) 4))))
(let ((?x1110 (+ (- ?x1056 (div (- (+ ?x436 (+ 0 (div ?x1168 12))) 1) 100)) (div (- (+ ?x436 (+ 0 (div ?x1168 12))) 1) 400))))
(let ((?x409 (+ (+ (- (+ (+ ?x1110 ?x1050) (- ?x976 1)) 730179) 0) 730179)))
(let ((?x797 (mod ?x409 146097)))
(let ((?x798 (div ?x797 36524)))
(let ((?x786 (ite (<= 4 ?x798) 3 ?x798)))
(let ((?x1089 (- ?x797 (* ?x786 36524))))
(let ((?x919 (mod ?x1089 1461)))
(let ((?x1136 (div ?x919 365)))
(let ((?x1196 (ite (<= 4 ?x1136) 3 ?x1136)))
(let ((?x1006 (+ (+ (* (div ?x409 146097) 400) (* ?x786 100)) (* (div ?x1089 1461) 4))))
(let ((?x575 (+ (+ ?x1006 ?x1196) 1)))
(let (($x1098 (or (and (= (mod ?x575 4) 0) (and (distinct (mod ?x575 100) 0) true)) (= (mod ?x575 400) 0))))
(let ((?x930 (- ?x919 (* ?x1196 365))))
(let ((?x505 (ite $x1098 31 31)))
(let (($x1191 (>= ?x930 ?x505)))
(let ((?x995 (ite $x1191 (+ (- ?x930 ?x505) 1) (+ (- ?x930 (ite $x1098 0 0)) 1))))
(let ((?x909 (ite $x1098 60 59)))
(let (($x1179 (>= ?x930 ?x909)))
(let ((?x627 (ite $x1098 91 90)))
(let (($x1015 (>= ?x930 ?x627)))
(let ((?x1194 (ite $x1015 (+ (- ?x930 ?x627) 1) (ite $x1179 (+ (- ?x930 ?x909) 1) ?x995))))
(let ((?x1193 (ite $x1098 121 120)))
(let (($x1157 (>= ?x930 ?x1193)))
(let ((?x412 (ite $x1098 152 151)))
(let (($x476 (>= ?x930 ?x412)))
(let ((?x1167 (ite $x476 (+ (- ?x930 ?x412) 1) (ite $x1157 (+ (- ?x930 ?x1193) 1) ?x1194))))
(let ((?x818 (ite $x1098 182 181)))
(let (($x749 (>= ?x930 ?x818)))
(let ((?x1166 (ite $x1098 213 212)))
(let (($x990 (>= ?x930 ?x1166)))
(let ((?x808 (ite $x990 (+ (- ?x930 ?x1166) 1) (ite $x749 (+ (- ?x930 ?x818) 1) ?x1167))))
(let ((?x1033 (ite $x1098 244 243)))
(let (($x858 (>= ?x930 ?x1033)))
(let ((?x545 (ite $x1098 274 273)))
(let (($x954 (>= ?x930 ?x545)))
(let ((?x825 (ite $x954 (+ (- ?x930 ?x545) 1) (ite $x858 (+ (- ?x930 ?x1033) 1) ?x808))))
(let ((?x729 (ite $x1098 305 304)))
(let (($x944 (>= ?x930 ?x729)))
(let ((?x435 (ite $x1098 335 334)))
(let (($x803 (>= ?x930 ?x435)))
(let ((?x903 (ite $x803 (+ (- ?x930 ?x435) 1) (ite $x944 (+ (- ?x930 ?x729) 1) ?x825))))
(let (($x841 (= 0 0)))
(let (($x907 (= (mod (ite $x841 (+ ?x436 (+ 0 (div ?x1168 12))) ?x575) 400) 0)))
(let (($x1144 (and (distinct (mod (ite $x841 (+ ?x436 (+ 0 (div ?x1168 12))) ?x575) 100) 0) true)))
(let (($x886 (= (mod (ite $x841 (+ ?x436 (+ 0 (div ?x1168 12))) ?x575) 4) 0)))
(let (($x969 (or (and $x886 $x1144) $x907)))
(let ((?x576 (ite $x1157 5 (ite $x1015 4 (ite $x1179 3 (ite $x1191 2 1))))))
(let ((?x996 (ite $x858 9 (ite $x990 8 (ite $x749 7 (ite $x476 6 ?x576))))))
(let ((?x867 (ite $x841 ?x667 (ite $x803 12 (ite $x944 11 (ite $x954 10 ?x996))))))
(let ((?x479 (ite (= 2 ?x867) (ite $x969 31 31) (ite (= 1 ?x867) (ite $x969 0 0) 0))))
(let ((?x410 (ite (= 4 ?x867) (ite $x969 91 90) (ite (= 3 ?x867) (ite $x969 60 59) ?x479))))
(let ((?x897 (ite (= 6 ?x867) (ite $x969 152 151) (ite (= 5 ?x867) (ite $x969 121 120) ?x410))))
(let ((?x510 (ite (= 8 ?x867) (ite $x969 213 212) (ite (= 7 ?x867) (ite $x969 182 181) ?x897))))
(let ((?x846 (ite (= 10 ?x867) (ite $x969 274 273) (ite (= 9 ?x867) (ite $x969 244 243) ?x510))))
(let ((?x518 (ite (= 12 ?x867) (ite $x969 335 334) (ite (= 11 ?x867) (ite $x969 305 304) ?x846))))
(let ((?x512 (+ ?x436 (+ 0 (div ?x1168 12)))))
(let ((?x902 (ite $x841 ?x512 ?x575)))
(let ((?x892 (- ?x902 1)))
(let ((?x868 (+ (- (+ (* 365 ?x892) (div ?x892 4)) (div ?x892 100)) (div ?x892 400))))
(let (($x922 (= (- (+ (+ ?x868 ?x518) (- (ite $x841 ?x976 ?x903) 1)) 730179) (+ x_days 366))))
(not $x922))))))))))))))))))))))))))))))))))))))))))))))))))))))))))))))))))))))))))))))))))))))))))))))))))))))))))))))))))))))))
(check-sat)
